<number of tasks>
89

<cycle time>
17

<task times>
1 1
2 2
3 3
4 4
5 5
6 6
7 7
8 8
9 9
10 10
11 1
12 2
13 3
14 4
15 5
16 6
17 7
18 8
19 9
20 10
21 1
22 2
23 3
24 4
25 5
26 6
27 7
28 8
29 9
30 10
31 1
32 2
33 3
34 4
35 5
36 6
37 7
38 8
39 9
40 10
41 1
42 2
43 3
44 4
45 5
46 6
47 7
48 8
49 9
50 10
51 1
52 2
53 3
54 4
55 5
56 6
57 7
58 8
59 9
60 10
61 1
62 2
63 3
64 4
65 5
66 6
67 7
68 8
69 9
70 10
71 1
72 2
73 3
74 4
75 5
76 6
77 7
78 8
79 9
80 10
81 1
82 2
83 3
84 4
85 5
86 6
87 7
88 8
89 9

<precedence relations>
1,2
2,3
3,4
4,5
4,6
4,7
4,8
4,9
5,10
6,11
7,12
8,18
9,18
10,14
11,12
12,13
13,14
14,15
14,16
15,17
16,54
17,18
18,19
18,20
19,22
20,21
20,28
21,54
22,23
23,24
24,25
25,26
25,27
25,29
26,37
27,33
28,29
29,31
30,54
31,32
32,33
33,34
34,35
35,36
35,37
36,38
37,38
38,39
39,40
39,41
39,42
39,43
40,44
41,53
42,53
43,45
44,52
45,46
46,47
47,48
47,49
49,50
50,51
51,52
52,53
53,68
53,69
53,70
53,71
54,55
55,56
56,57
57,58
57,59
57,60
57,61
57,62
57,63
57,64
57,65
57,66
58,67
59,67
60,67
61,67
62,67
63,67
64,67
65,67
66,67
67,73
68,72
69,72
70,72
71,73
72,78
72,80
73,74
74,75
74,76
75,77
76,81
77,78
78,79
79,81
80,81
81,82
81,84
81,85
82,83
83,86
84,86
85,86
86,87
87,88
87,89

<setup times forward>
1,30:1
2,30:1
3,30:1
4,30:1
5,10:1
5,13:1
5,30:1
6,10:1
6,30:1
7,10:1
7,30:1
8,10:1
8,13:1
8,14:1
8,18:1
8,30:1
9,10:1
9,13:1
9,14:1
9,18:1
9,30:1
10,6:1
10,7:1
10,8:1
10,9:1
10,11:1
10,12:1
11,10:1
11,30:1
12,10:1
12,13:1
12,30:1
13,5:1
13,8:1
13,9:1
14,8:1
14,9:1
14,15:1
14,16:1
15,30:1
16,18:1
16,19:1
16,22:1
16,23:1
16,24:1
16,26:1
16,27:1
16,28:1
16,30:1
16,33:1
16,34:1
16,38:1
16,39:1
16,40:1
16,43:1
16,44:1
16,47:1
16,48:1
16,54:1
16,68:1
16,69:1
16,80:1
17,18:1
17,30:1
18,16:1
18,20:1
19,16:1
19,20:1
19,21:1
19,55:1
19,56:1
19,57:1
19,58:1
19,59:1
19,61:1
19,62:1
19,63:1
19,64:1
19,65:1
19,66:1
19,67:1
20,19:1
20,22:1
20,23:1
20,24:1
20,26:1
20,27:1
20,28:1
20,30:1
21,19:1
21,22:1
21,23:1
21,24:1
21,26:1
21,27:1
21,28:1
21,30:1
21,33:1
21,34:1
21,38:1
21,39:1
21,40:1
21,43:1
21,44:1
21,47:1
21,48:1
21,54:1
21,68:1
21,69:1
21,80:1
22,16:1
22,20:1
22,21:1
22,55:1
22,56:1
22,57:1
22,58:1
22,59:1
22,61:1
22,62:1
22,63:1
22,64:1
22,65:1
22,66:1
22,67:1
23,16:1
23,20:1
23,21:1
23,55:1
23,56:1
23,57:1
23,58:1
23,59:1
23,61:1
23,62:1
23,63:1
23,64:1
23,65:1
23,66:1
23,67:1
24,16:1
24,20:1
24,21:1
24,25:1
24,55:1
24,56:1
24,57:1
24,58:1
24,59:1
24,61:1
24,62:1
24,63:1
24,64:1
24,65:1
24,66:1
24,67:1
25,26:1
25,27:1
25,28:1
25,30:1
25,54:1
25,60:1
26,16:1
26,20:1
26,21:1
26,29:1
26,31:1
26,32:1
26,35:1
26,36:1
26,37:1
26,55:1
26,56:1
26,57:1
26,58:1
26,59:1
26,61:1
26,62:1
26,63:1
26,64:1
26,65:1
26,66:1
26,67:1
27,16:1
27,20:1
27,21:1
27,29:1
27,31:1
27,32:1
27,55:1
27,56:1
27,57:1
27,58:1
27,59:1
27,61:1
27,62:1
27,63:1
27,64:1
27,65:1
27,66:1
27,67:1
28,16:1
28,21:1
28,25:1
28,29:1
28,55:1
28,56:1
28,57:1
28,58:1
28,59:1
28,61:1
28,62:1
28,63:1
28,64:1
28,65:1
28,66:1
28,67:1
29,26:1
29,27:1
29,30:1
29,54:1
29,60:1
30,1:1
30,2:1
30,3:1
30,4:1
30,5:1
30,6:1
30,7:1
30,8:1
30,9:1
30,11:1
30,12:1
30,15:1
30,16:1
30,17:1
30,20:1
30,21:1
30,25:1
30,29:1
30,31:1
30,32:1
30,35:1
30,36:1
30,37:1
30,41:1
30,42:1
30,45:1
30,46:1
30,49:1
30,50:1
30,51:1
30,52:1
30,53:1
30,70:1
30,71:1
30,72:1
31,26:1
31,27:1
31,30:1
31,54:1
31,60:1
32,26:1
32,27:1
32,30:1
32,33:1
32,54:1
32,60:1
33,16:1
33,21:1
33,55:1
33,56:1
33,57:1
33,58:1
33,59:1
33,61:1
33,62:1
33,63:1
33,64:1
33,65:1
33,66:1
33,67:1
34,16:1
34,21:1
34,35:1
34,55:1
34,56:1
34,57:1
34,58:1
34,59:1
34,61:1
34,62:1
34,63:1
34,64:1
34,65:1
34,66:1
34,67:1
35,26:1
35,30:1
35,54:1
35,60:1
36,26:1
36,30:1
36,38:1
36,54:1
36,60:1
37,30:1
37,38:1
37,54:1
37,60:1
38,16:1
38,21:1
38,55:1
38,56:1
38,57:1
38,58:1
38,59:1
38,61:1
38,62:1
38,63:1
38,64:1
38,65:1
38,66:1
38,67:1
39,16:1
39,21:1
39,41:1
39,42:1
39,55:1
39,56:1
39,57:1
39,58:1
39,59:1
39,61:1
39,62:1
39,63:1
39,64:1
39,65:1
39,66:1
39,67:1
40,16:1
40,21:1
40,41:1
40,42:1
40,45:1
40,46:1
40,49:1
40,50:1
40,51:1
40,55:1
40,56:1
40,57:1
40,58:1
40,59:1
40,61:1
40,62:1
40,63:1
40,64:1
40,65:1
40,66:1
40,67:1
41,30:1
41,40:1
41,43:1
41,44:1
41,47:1
41,48:1
41,54:1
41,60:1
42,30:1
42,40:1
42,43:1
42,44:1
42,47:1
42,48:1
42,54:1
42,60:1
43,16:1
43,21:1
43,41:1
43,42:1
43,45:1
43,55:1
43,56:1
43,57:1
43,58:1
43,59:1
43,61:1
43,62:1
43,63:1
43,64:1
43,65:1
43,66:1
43,67:1
44,16:1
44,21:1
44,41:1
44,42:1
44,45:1
44,46:1
44,49:1
44,50:1
44,51:1
44,52:1
44,55:1
44,56:1
44,57:1
44,58:1
44,59:1
44,61:1
44,62:1
44,63:1
44,64:1
44,65:1
44,66:1
44,67:1
45,30:1
45,40:1
45,44:1
45,54:1
45,60:1
46,30:1
46,40:1
46,44:1
46,47:1
46,54:1
46,60:1
47,16:1
47,21:1
47,41:1
47,42:1
47,49:1
47,55:1
47,56:1
47,57:1
47,58:1
47,59:1
47,61:1
47,62:1
47,63:1
47,64:1
47,65:1
47,66:1
47,67:1
48,16:1
48,21:1
48,41:1
48,42:1
48,49:1
48,50:1
48,51:1
48,52:1
48,53:1
48,55:1
48,56:1
48,57:1
48,58:1
48,59:1
48,61:1
48,62:1
48,63:1
48,64:1
48,65:1
48,66:1
48,67:1
48,70:1
48,71:1
48,72:1
48,73:1
48,84:1
48,86:1
48,87:1
49,30:1
49,40:1
49,44:1
49,48:1
49,54:1
49,60:1
50,30:1
50,40:1
50,44:1
50,48:1
50,54:1
50,60:1
51,30:1
51,40:1
51,44:1
51,48:1
51,54:1
51,60:1
52,30:1
52,48:1
52,54:1
52,60:1
53,30:1
53,48:1
53,54:1
53,60:1
53,68:1
53,69:1
54,25:1
54,29:1
54,31:1
54,32:1
54,35:1
54,36:1
54,37:1
54,41:1
54,42:1
54,45:1
54,46:1
54,49:1
54,50:1
54,51:1
54,52:1
54,53:1
54,55:1
54,70:1
54,71:1
54,72:1
55,19:1
55,22:1
55,23:1
55,24:1
55,26:1
55,27:1
55,28:1
55,33:1
55,34:1
55,38:1
55,39:1
55,40:1
55,43:1
55,44:1
55,47:1
55,48:1
55,68:1
55,69:1
55,80:1
56,19:1
56,22:1
56,23:1
56,24:1
56,26:1
56,27:1
56,28:1
56,33:1
56,34:1
56,38:1
56,39:1
56,40:1
56,43:1
56,44:1
56,47:1
56,48:1
56,68:1
56,69:1
56,80:1
57,19:1
57,22:1
57,23:1
57,24:1
57,26:1
57,27:1
57,28:1
57,33:1
57,34:1
57,38:1
57,39:1
57,40:1
57,43:1
57,44:1
57,47:1
57,48:1
57,60:1
57,68:1
57,69:1
57,80:1
58,19:1
58,22:1
58,23:1
58,24:1
58,26:1
58,27:1
58,28:1
58,33:1
58,34:1
58,38:1
58,39:1
58,40:1
58,43:1
58,44:1
58,47:1
58,48:1
58,60:1
58,68:1
58,69:1
58,80:1
59,19:1
59,22:1
59,23:1
59,24:1
59,26:1
59,27:1
59,28:1
59,33:1
59,34:1
59,38:1
59,39:1
59,40:1
59,43:1
59,44:1
59,47:1
59,48:1
59,60:1
59,68:1
59,69:1
59,80:1
60,25:1
60,29:1
60,31:1
60,32:1
60,35:1
60,36:1
60,37:1
60,41:1
60,42:1
60,45:1
60,46:1
60,49:1
60,50:1
60,51:1
60,52:1
60,53:1
60,58:1
60,59:1
60,61:1
60,62:1
60,63:1
60,64:1
60,65:1
60,66:1
60,67:1
60,70:1
60,71:1
60,72:1
61,19:1
61,22:1
61,23:1
61,24:1
61,26:1
61,27:1
61,28:1
61,33:1
61,34:1
61,38:1
61,39:1
61,40:1
61,43:1
61,44:1
61,47:1
61,48:1
61,60:1
61,68:1
61,69:1
61,80:1
62,19:1
62,22:1
62,23:1
62,24:1
62,26:1
62,27:1
62,28:1
62,33:1
62,34:1
62,38:1
62,39:1
62,40:1
62,43:1
62,44:1
62,47:1
62,48:1
62,60:1
62,68:1
62,69:1
62,80:1
63,19:1
63,22:1
63,23:1
63,24:1
63,26:1
63,27:1
63,28:1
63,33:1
63,34:1
63,38:1
63,39:1
63,40:1
63,43:1
63,44:1
63,47:1
63,48:1
63,60:1
63,68:1
63,69:1
63,80:1
64,19:1
64,22:1
64,23:1
64,24:1
64,26:1
64,27:1
64,28:1
64,33:1
64,34:1
64,38:1
64,39:1
64,40:1
64,43:1
64,44:1
64,47:1
64,48:1
64,60:1
64,68:1
64,69:1
64,80:1
65,19:1
65,22:1
65,23:1
65,24:1
65,26:1
65,27:1
65,28:1
65,33:1
65,34:1
65,38:1
65,39:1
65,40:1
65,43:1
65,44:1
65,47:1
65,48:1
65,60:1
65,68:1
65,69:1
65,80:1
66,19:1
66,22:1
66,23:1
66,24:1
66,26:1
66,27:1
66,28:1
66,33:1
66,34:1
66,38:1
66,39:1
66,40:1
66,43:1
66,44:1
66,47:1
66,48:1
66,60:1
66,68:1
66,69:1
66,80:1
67,19:1
67,22:1
67,23:1
67,24:1
67,26:1
67,27:1
67,28:1
67,33:1
67,34:1
67,38:1
67,39:1
67,40:1
67,43:1
67,44:1
67,47:1
67,48:1
67,68:1
67,69:1
67,80:1
68,16:1
68,21:1
68,55:1
68,56:1
68,57:1
68,58:1
68,59:1
68,61:1
68,62:1
68,63:1
68,64:1
68,65:1
68,66:1
68,67:1
68,70:1
68,71:1
68,72:1
68,73:1
69,16:1
69,21:1
69,55:1
69,56:1
69,57:1
69,58:1
69,59:1
69,61:1
69,62:1
69,63:1
69,64:1
69,65:1
69,66:1
69,67:1
69,70:1
69,71:1
69,72:1
69,73:1
70,30:1
70,48:1
70,54:1
70,60:1
70,68:1
70,69:1
70,74:1
70,75:1
70,76:1
70,77:1
71,30:1
71,48:1
71,54:1
71,60:1
71,68:1
71,69:1
71,80:1
72,30:1
72,48:1
72,54:1
72,60:1
72,74:1
72,75:1
72,76:1
72,77:1
72,78:1
72,80:1
73,48:1
73,68:1
73,69:1
73,74:1
73,80:1
74,70:1
74,72:1
75,70:1
75,72:1
76,70:1
76,72:1
77,70:1
77,72:1
80,16:1
80,21:1
80,55:1
80,56:1
80,57:1
80,58:1
80,59:1
80,61:1
80,62:1
80,63:1
80,64:1
80,65:1
80,66:1
80,67:1
80,71:1
80,73:1
81,84:1
82,84:1
83,84:1
83,86:1
84,48:1
84,82:1
84,83:1
84,85:1
85,84:1
85,86:1
86,48:1
87,48:1
87,88:1
87,89:1

<setup times backward>
1,30:1
2,30:1
3,30:1
4,30:1
5,13:1
5,30:1
6,10:1
6,30:1
7,10:1
7,30:1
8,10:1
8,13:1
8,14:1
8,30:1
9,10:1
9,13:1
9,14:1
9,30:1
11,10:1
11,30:1
12,10:1
12,30:1
15,10:1
15,13:1
15,14:1
15,30:1
16,10:1
16,13:1
16,14:1
16,18:1
16,19:1
16,22:1
16,23:1
16,24:1
16,26:1
16,27:1
16,28:1
16,30:1
16,33:1
16,34:1
16,38:1
16,39:1
16,40:1
16,43:1
16,44:1
16,47:1
16,48:1
16,68:1
16,69:1
16,80:1
17,10:1
17,13:1
17,14:1
17,30:1
20,10:1
20,13:1
20,14:1
20,18:1
20,19:1
20,22:1
20,23:1
20,24:1
20,26:1
20,27:1
20,30:1
21,10:1
21,13:1
21,14:1
21,18:1
21,19:1
21,22:1
21,23:1
21,24:1
21,26:1
21,27:1
21,28:1
21,30:1
21,33:1
21,34:1
21,38:1
21,39:1
21,40:1
21,43:1
21,44:1
21,47:1
21,48:1
21,68:1
21,69:1
21,80:1
25,10:1
25,13:1
25,14:1
25,18:1
25,19:1
25,22:1
25,23:1
25,24:1
25,28:1
25,30:1
25,54:1
25,60:1
29,10:1
29,13:1
29,14:1
29,18:1
29,19:1
29,22:1
29,23:1
29,24:1
29,26:1
29,27:1
29,28:1
29,30:1
29,54:1
29,60:1
31,10:1
31,13:1
31,14:1
31,18:1
31,19:1
31,22:1
31,23:1
31,24:1
31,26:1
31,27:1
31,28:1
31,30:1
31,54:1
31,60:1
32,10:1
32,13:1
32,14:1
32,18:1
32,19:1
32,22:1
32,23:1
32,24:1
32,26:1
32,27:1
32,28:1
32,30:1
32,54:1
32,60:1
35,10:1
35,13:1
35,14:1
35,18:1
35,19:1
35,22:1
35,23:1
35,24:1
35,26:1
35,27:1
35,28:1
35,30:1
35,33:1
35,34:1
35,54:1
35,60:1
36,10:1
36,13:1
36,14:1
36,18:1
36,19:1
36,22:1
36,23:1
36,24:1
36,26:1
36,27:1
36,28:1
36,30:1
36,33:1
36,34:1
36,54:1
36,60:1
37,10:1
37,13:1
37,14:1
37,18:1
37,19:1
37,22:1
37,23:1
37,24:1
37,26:1
37,27:1
37,28:1
37,30:1
37,33:1
37,34:1
37,54:1
37,60:1
41,10:1
41,13:1
41,14:1
41,18:1
41,19:1
41,22:1
41,23:1
41,24:1
41,26:1
41,27:1
41,28:1
41,30:1
41,33:1
41,34:1
41,38:1
41,39:1
41,40:1
41,43:1
41,44:1
41,47:1
41,48:1
41,54:1
41,60:1
42,10:1
42,13:1
42,14:1
42,18:1
42,19:1
42,22:1
42,23:1
42,24:1
42,26:1
42,27:1
42,28:1
42,30:1
42,33:1
42,34:1
42,38:1
42,39:1
42,40:1
42,43:1
42,44:1
42,47:1
42,48:1
42,54:1
42,60:1
45,10:1
45,13:1
45,14:1
45,18:1
45,19:1
45,22:1
45,23:1
45,24:1
45,26:1
45,27:1
45,28:1
45,30:1
45,33:1
45,34:1
45,38:1
45,39:1
45,40:1
45,43:1
45,44:1
45,54:1
45,60:1
46,10:1
46,13:1
46,14:1
46,18:1
46,19:1
46,22:1
46,23:1
46,24:1
46,26:1
46,27:1
46,28:1
46,30:1
46,33:1
46,34:1
46,38:1
46,39:1
46,40:1
46,43:1
46,44:1
46,54:1
46,60:1
49,10:1
49,13:1
49,14:1
49,18:1
49,19:1
49,22:1
49,23:1
49,24:1
49,26:1
49,27:1
49,28:1
49,30:1
49,33:1
49,34:1
49,38:1
49,39:1
49,40:1
49,43:1
49,44:1
49,47:1
49,48:1
49,54:1
49,60:1
50,10:1
50,13:1
50,14:1
50,18:1
50,19:1
50,22:1
50,23:1
50,24:1
50,26:1
50,27:1
50,28:1
50,30:1
50,33:1
50,34:1
50,38:1
50,39:1
50,40:1
50,43:1
50,44:1
50,47:1
50,48:1
50,54:1
50,60:1
51,10:1
51,13:1
51,14:1
51,18:1
51,19:1
51,22:1
51,23:1
51,24:1
51,26:1
51,27:1
51,28:1
51,30:1
51,33:1
51,34:1
51,38:1
51,39:1
51,40:1
51,43:1
51,44:1
51,47:1
51,48:1
51,54:1
51,60:1
52,10:1
52,13:1
52,14:1
52,18:1
52,19:1
52,22:1
52,23:1
52,24:1
52,26:1
52,27:1
52,28:1
52,30:1
52,33:1
52,34:1
52,38:1
52,39:1
52,40:1
52,43:1
52,44:1
52,47:1
52,48:1
52,54:1
52,60:1
53,10:1
53,13:1
53,14:1
53,18:1
53,19:1
53,22:1
53,23:1
53,24:1
53,26:1
53,27:1
53,28:1
53,30:1
53,33:1
53,34:1
53,38:1
53,39:1
53,40:1
53,43:1
53,44:1
53,47:1
53,48:1
53,54:1
53,60:1
55,10:1
55,13:1
55,14:1
55,18:1
55,19:1
55,22:1
55,23:1
55,24:1
55,26:1
55,27:1
55,28:1
55,30:1
55,33:1
55,34:1
55,38:1
55,39:1
55,40:1
55,43:1
55,44:1
55,47:1
55,48:1
55,54:1
55,68:1
55,69:1
55,80:1
56,10:1
56,13:1
56,14:1
56,18:1
56,19:1
56,22:1
56,23:1
56,24:1
56,26:1
56,27:1
56,28:1
56,30:1
56,33:1
56,34:1
56,38:1
56,39:1
56,40:1
56,43:1
56,44:1
56,47:1
56,48:1
56,54:1
56,68:1
56,69:1
56,80:1
57,10:1
57,13:1
57,14:1
57,18:1
57,19:1
57,22:1
57,23:1
57,24:1
57,26:1
57,27:1
57,28:1
57,30:1
57,33:1
57,34:1
57,38:1
57,39:1
57,40:1
57,43:1
57,44:1
57,47:1
57,48:1
57,54:1
57,68:1
57,69:1
57,80:1
58,10:1
58,13:1
58,14:1
58,18:1
58,19:1
58,22:1
58,23:1
58,24:1
58,26:1
58,27:1
58,28:1
58,30:1
58,33:1
58,34:1
58,38:1
58,39:1
58,40:1
58,43:1
58,44:1
58,47:1
58,48:1
58,54:1
58,60:1
58,68:1
58,69:1
58,80:1
59,10:1
59,13:1
59,14:1
59,18:1
59,19:1
59,22:1
59,23:1
59,24:1
59,26:1
59,27:1
59,28:1
59,30:1
59,33:1
59,34:1
59,38:1
59,39:1
59,40:1
59,43:1
59,44:1
59,47:1
59,48:1
59,54:1
59,60:1
59,68:1
59,69:1
59,80:1
61,10:1
61,13:1
61,14:1
61,18:1
61,19:1
61,22:1
61,23:1
61,24:1
61,26:1
61,27:1
61,28:1
61,30:1
61,33:1
61,34:1
61,38:1
61,39:1
61,40:1
61,43:1
61,44:1
61,47:1
61,48:1
61,54:1
61,60:1
61,68:1
61,69:1
61,80:1
62,10:1
62,13:1
62,14:1
62,18:1
62,19:1
62,22:1
62,23:1
62,24:1
62,26:1
62,27:1
62,28:1
62,30:1
62,33:1
62,34:1
62,38:1
62,39:1
62,40:1
62,43:1
62,44:1
62,47:1
62,48:1
62,54:1
62,60:1
62,68:1
62,69:1
62,80:1
63,10:1
63,13:1
63,14:1
63,18:1
63,19:1
63,22:1
63,23:1
63,24:1
63,26:1
63,27:1
63,28:1
63,30:1
63,33:1
63,34:1
63,38:1
63,39:1
63,40:1
63,43:1
63,44:1
63,47:1
63,48:1
63,54:1
63,60:1
63,68:1
63,69:1
63,80:1
64,10:1
64,13:1
64,14:1
64,18:1
64,19:1
64,22:1
64,23:1
64,24:1
64,26:1
64,27:1
64,28:1
64,30:1
64,33:1
64,34:1
64,38:1
64,39:1
64,40:1
64,43:1
64,44:1
64,47:1
64,48:1
64,54:1
64,60:1
64,68:1
64,69:1
64,80:1
65,10:1
65,13:1
65,14:1
65,18:1
65,19:1
65,22:1
65,23:1
65,24:1
65,26:1
65,27:1
65,28:1
65,30:1
65,33:1
65,34:1
65,38:1
65,39:1
65,40:1
65,43:1
65,44:1
65,47:1
65,48:1
65,54:1
65,60:1
65,68:1
65,69:1
65,80:1
66,10:1
66,13:1
66,14:1
66,18:1
66,19:1
66,22:1
66,23:1
66,24:1
66,26:1
66,27:1
66,28:1
66,30:1
66,33:1
66,34:1
66,38:1
66,39:1
66,40:1
66,43:1
66,44:1
66,47:1
66,48:1
66,54:1
66,60:1
66,68:1
66,69:1
66,80:1
67,10:1
67,13:1
67,14:1
67,18:1
67,19:1
67,22:1
67,23:1
67,24:1
67,26:1
67,27:1
67,28:1
67,30:1
67,33:1
67,34:1
67,38:1
67,39:1
67,40:1
67,43:1
67,44:1
67,47:1
67,48:1
67,54:1
67,60:1
67,68:1
67,69:1
67,80:1
70,10:1
70,13:1
70,14:1
70,18:1
70,19:1
70,22:1
70,23:1
70,24:1
70,26:1
70,27:1
70,28:1
70,30:1
70,33:1
70,34:1
70,38:1
70,39:1
70,40:1
70,43:1
70,44:1
70,47:1
70,48:1
70,54:1
70,60:1
70,68:1
70,69:1
70,74:1
70,75:1
70,76:1
70,77:1
71,10:1
71,13:1
71,14:1
71,18:1
71,19:1
71,22:1
71,23:1
71,24:1
71,26:1
71,27:1
71,28:1
71,30:1
71,33:1
71,34:1
71,38:1
71,39:1
71,40:1
71,43:1
71,44:1
71,47:1
71,48:1
71,54:1
71,60:1
71,68:1
71,69:1
71,80:1
72,10:1
72,13:1
72,14:1
72,18:1
72,19:1
72,22:1
72,23:1
72,24:1
72,26:1
72,27:1
72,28:1
72,30:1
72,33:1
72,34:1
72,38:1
72,39:1
72,40:1
72,43:1
72,44:1
72,47:1
72,48:1
72,54:1
72,60:1
72,68:1
72,69:1
72,74:1
72,75:1
72,76:1
72,77:1
73,10:1
73,13:1
73,14:1
73,18:1
73,19:1
73,22:1
73,23:1
73,24:1
73,26:1
73,27:1
73,28:1
73,30:1
73,33:1
73,34:1
73,38:1
73,39:1
73,40:1
73,43:1
73,44:1
73,47:1
73,48:1
73,54:1
73,60:1
73,68:1
73,69:1
73,80:1
84,10:1
84,13:1
84,14:1
84,18:1
84,19:1
84,22:1
84,23:1
84,24:1
84,26:1
84,27:1
84,28:1
84,30:1
84,33:1
84,34:1
84,38:1
84,39:1
84,40:1
84,43:1
84,44:1
84,47:1
84,48:1
84,54:1
84,60:1
84,68:1
84,69:1
84,74:1
84,75:1
84,76:1
84,77:1
84,78:1
84,79:1
84,80:1
84,81:1
84,82:1
84,83:1
84,85:1
86,10:1
86,13:1
86,14:1
86,18:1
86,19:1
86,22:1
86,23:1
86,24:1
86,26:1
86,27:1
86,28:1
86,30:1
86,33:1
86,34:1
86,38:1
86,39:1
86,40:1
86,43:1
86,44:1
86,47:1
86,48:1
86,54:1
86,60:1
86,68:1
86,69:1
86,74:1
86,75:1
86,76:1
86,77:1
86,78:1
86,79:1
86,80:1
86,81:1
86,82:1
86,83:1
86,85:1
87,10:1
87,13:1
87,14:1
87,18:1
87,19:1
87,22:1
87,23:1
87,24:1
87,26:1
87,27:1
87,28:1
87,30:1
87,33:1
87,34:1
87,38:1
87,39:1
87,40:1
87,43:1
87,44:1
87,47:1
87,48:1
87,54:1
87,60:1
87,68:1
87,69:1
87,74:1
87,75:1
87,76:1
87,77:1
87,78:1
87,79:1
87,80:1
87,81:1
87,82:1
87,83:1
87,85:1

<end>

<optimal SALBP-1 value>
29


<rand seed>
467321153

<Lower Bounds>
Lm1=29
Lms1=29
Lm2=17
Lm3=22
Lm4=29
Best=29

<Optimal Stations (Iterations: 10)>
35
